unsat
(define-fun f ((x (_ BitVec 64))) (_ BitVec 64) (let ((_let_1 (bvadd x (smol x)))) (let ((_let_2 (arba x))) (im (bvand #b0000000000000000000000000000000000000000000000000000000000000001 (ehad x)) (im (bvand #b0000000000000000000000000000000000000000000000000000000000000001 x) _let_1 (im (bvand #b0000000000000000000000000000000000000000000000000000000000000001 _let_2) (bvxor #b0000000000000000000000000000000000000000000000000000000000000001 _let_2) _let_2)) _let_1))))
0.02user 0.00system 0:00.02elapsed 100%CPU (0avgtext+0avgdata 25424maxresident)k
0inputs+8outputs (0major+1008minor)pagefaults 0swaps
